data;

param num_top:=6;

#nodes and edges of the physical network
param n := 10;

set E := (1,2) (1,3) (1,7) (2,4) (2,7) (3,5) (4,8) (5,6) (5,7) (6,7) (6,9) (7,8) (7,9) (8,10) (9,10) ;

#nodes and edges of the virtual networks
set Nl[1] := 1 4 3 10 5 ;
set Nl[2] := 8 3 1 10 7 ;
set Nl[3] := 4 2 8 10 9 ;
set Nl[4] := 5 7 6 8 9 ;
set Nl[5] := 6 10 2 4 7 ;
set Nl[6] := 1 5 2 10 8 ;

set El[1] := (1,4) (3,4) (3,10) (5,10) (1,5) (1,10) (4,10) (1,3) (3,5) (4,5) ;
set El[2] := (3,8) (1,3) (1,10) (7,10) (7,8) (3,10) (1,8) (1,7) (8,10) (3,7) ;
set El[3] := (2,4) (2,8) (8,10) (9,10) (4,9) (4,10) (2,10) (2,9) (4,8) (8,9) ;
set El[4] := (5,7) (6,7) (6,8) (8,9) (5,9) (7,8) (5,8) (6,9) (5,6) (7,9) ;
set El[5] := (6,10) (2,10) (2,4) (4,7) (6,7) (4,10) (2,6) (4,6) (2,7) (7,10) ;
set El[6] := (1,5) (2,5) (2,10) (8,10) (1,8) (1,2) (5,10) (5,8) (1,10) (2,8) ;
